c turning on binary mode checking
c parsing input formula with 202048 variables and 780980 clauses
c finished parsing, read 23282479 bytes from proof file
c detected empty clause; start verification via backward checking
c 55975 of 780980 clauses in core                            
c 91233 of 544834 lemmas in core using 1218393 resolution steps
c 0 RAT lemmas in core; 15182 redundant literals in core lemmas
s VERIFIED
c verification time: 6.416 seconds
